36
water12 cluster for nprocs benchmark (Angstrom)
O 0.000000 0.000000 0.000000
H 0.957200 0.000000 0.000000
H -0.239987 0.926627 0.000000
O 0.000000 0.000000 3.200000
H 0.957200 0.000000 3.200000
H -0.239987 0.926627 3.200000
O 0.000000 3.200000 0.000000
H 0.957200 3.200000 0.000000
H -0.239987 4.126627 0.000000
O 0.000000 3.200000 3.200000
H 0.957200 3.200000 3.200000
H -0.239987 4.126627 3.200000
O 3.500000 0.000000 0.000000
H 4.457200 0.000000 0.000000
H 3.260013 0.926627 0.000000
O 3.500000 0.000000 3.200000
H 4.457200 0.000000 3.200000
H 3.260013 0.926627 3.200000
O 3.500000 3.200000 0.000000
H 4.457200 3.200000 0.000000
H 3.260013 4.126627 0.000000
O 3.500000 3.200000 3.200000
H 4.457200 3.200000 3.200000
H 3.260013 4.126627 3.200000
O 7.000000 0.000000 0.000000
H 7.957200 0.000000 0.000000
H 6.760013 0.926627 0.000000
O 7.000000 0.000000 3.200000
H 7.957200 0.000000 3.200000
H 6.760013 0.926627 3.200000
O 7.000000 3.200000 0.000000
H 7.957200 3.200000 0.000000
H 6.760013 4.126627 0.000000
O 7.000000 3.200000 3.200000
H 7.957200 3.200000 3.200000
H 6.760013 4.126627 3.200000
